Maximize
  - 2.914940086832 edge_0_1_0_0 - 4.581504614764 edge_0_2_0_0
   - 3.067996313664 edge_0_3_0_0 - 1.9149003431222 edge_0_4_0_0
   - 1.5562298075806 edge_0_5_0_0 - 1.440404416353 edge_0_6_0_0
   - 4.3858287571968 edge_0_9_0_0 - 1.6231976575416 edge_0_10_0_0
   - 2.2244880557055 edge_0_11_0_0 - 4.007568339549 edge_0_12_0_0
   - 2.7383853476397 edge_0_13_0_0 - 1.3515947852502 edge_0_15_0_0
   - 3.0280273628401 edge_0_16_0_0 - 1.83489193821 edge_0_19_0_0
   - 3.1885799759748 edge_0_20_0_0 + 0.1399660506052844 edge_1_3_0_0
   - 0.2417041465492745 edge_1_4_0_0 - 0.0630812286278095 edge_1_5_0_0
   - 0.1735589679224618 edge_1_6_0_0 - 0.4542772299962597 edge_1_15_0_0
   - 0.3447531705231189 edge_1_20_0_0 + 2.131617665307976 edge_2_3_0_0
   + 0.7529882568977593 edge_2_4_0_0 + 0.1450485977331894 edge_2_7_0_0
   + 0.1940560193945578 edge_2_9_0_0 + 0.5037734587863333 edge_2_10_0_0
   - 0.1010533508501153 edge_2_11_0_0 + 1.184489652697095 edge_2_12_0_0
   - 0.6428802223590543 edge_2_13_0_0 - 0.1583816241453728 edge_2_15_0_0
   + 0.0997452341323012 edge_2_16_0_0 - 0.7035741689440388 edge_2_19_0_0
   + 1.1100800088671 edge_2_20_0_0 + 0.4691239596315313 edge_3_1_0_0
   + 0.9174341128795931 edge_3_2_0_0 + 1.910000684188522 edge_3_4_0_0
   + 0.3892261969240106 edge_3_5_0_0 + 0.2168972157992164 edge_3_6_0_0
   + 0.0833795241986994 edge_3_7_0_0 - 0.9390254032957829 edge_3_9_0_0
   - 0.7919147975231454 edge_3_10_0_0 - 2.048544243577583 edge_3_11_0_0
   + 0.0119983925138782 edge_3_12_0_0 + 0.012392378925451 edge_3_15_0_0
   - 1.19406750130238 edge_3_16_0_0 + 0.7382342942967481 edge_3_20_0_0
   + 0.5326521170119558 edge_4_1_0_0 + 1.171732131067593 edge_4_2_0_0
   + 2.140161657880897 edge_4_3_0_0 + 0.5384379738675016 edge_4_5_0_0
   + 1.335225192308549 edge_4_6_0_0 + 1.988813266098452 edge_4_7_0_0
   + 0.7377232433433097 edge_4_9_0_0 + 1.409939965513363 edge_4_10_0_0
   - 0.3598156270365678 edge_4_11_0_0 + 0.2331755570485466 edge_4_12_0_0
   - 1.130443292222724 edge_4_13_0_0 - 0.4406493417841373 edge_4_15_0_0
   + 0.8084102135522794 edge_4_16_0_0 + 2.911507932384 edge_4_20_0_0
   - 0.4723064902043265 edge_5_1_0_0 - 0.3257418764981455 edge_5_3_0_0
   - 0.1225208570821857 edge_5_4_0_0 - 0.0937173379084763 edge_5_6_0_0
   - 0.1500339293422986 edge_5_15_0_0 - 0.096627468970296 edge_5_20_0_0
   + 0.00652374922233793 edge_6_1_0_0 + 0.2503306733436924 edge_6_3_0_0
   + 0.4340946640461356 edge_6_4_0_0 - 0.00313598969402295 edge_6_5_0_0
   + 0.6333696047631954 edge_6_7_0_0 - 1.071659572431374 edge_6_9_0_0
   - 0.3579842758241485 edge_6_10_0_0 - 0.4832900478326765 edge_6_11_0_0
   - 0.6779533205106447 edge_6_12_0_0 - 0.9039840463389215 edge_6_13_0_0
   + 0.1382904175119173 edge_6_14_0_0 - 0.1288491494134167 edge_6_15_0_0
   + 1.833817775706539 edge_6_17_0_0 - 0.6141106674886457 edge_6_19_0_0
   + 2.733237693642687 edge_6_20_0_0 - 0.1510361820415235 edge_7_4_0_0
   - 0.4159366805562857 edge_7_6_0_0 - 0.7853581269685017 edge_7_14_0_0
   - 0.7193844080121004 edge_7_15_0_0 - 0.2322326138695027 edge_7_17_0_0
   - 0.7498825140184956 edge_9_2_0_0 - 0.0442990223874329 edge_9_3_0_0
   + 0.0823859486815227 edge_9_4_0_0 - 1.040901632355524 edge_9_6_0_0
   + 0.5201911960603783 edge_9_7_0_0 + 1.920235614083305 edge_9_10_0_0
   + 0.1443997922850834 edge_9_11_0_0 + 0.5578402570587828 edge_9_12_0_0
   - 1.019819320543368 edge_9_13_0_0 - 1.173284166252002 edge_9_15_0_0
   - 0.2972709702452023 edge_9_16_0_0 - 1.457218779337412 edge_9_17_0_0
   + 0.2563039497473818 edge_9_18_0_0 + 1.58449597102856 edge_9_19_0_0
   + 3.59026809666175 edge_9_20_0_0 - 0.4033067152334859 edge_10_2_0_0
   + 0.0906498858814622 edge_10_3_0_0 + 0.379210016182876 edge_10_4_0_0
   - 1.129875628961228 edge_10_6_0_0 - 0.1056536349169154 edge_10_7_0_0
   + 0.6273723308939366 edge_10_9_0_0 + 2.459662236565582 edge_10_11_0_0
   + 1.072634177900027 edge_10_12_0_0 + 0.7438883059141964 edge_10_13_0_0
   - 0.8668132046020877 edge_10_14_0_0 + 0.019606531270859 edge_10_15_0_0
   + 1.041345796756777 edge_10_16_0_0 - 0.5887605641374423 edge_10_17_0_0
   + 0.3481443098722527 edge_10_18_0_0 + 0.6678587565453288 edge_10_19_0_0
   + 2.2583338936484 edge_10_20_0_0 - 0.6448709408434968 edge_11_2_0_0
   - 0.2625682621815051 edge_11_3_0_0 - 0.00619642770785982 edge_11_4_0_0
   + 0.3847226828669775 edge_11_6_0_0 + 0.767840284933937 edge_11_7_0_0
   + 0.2393594219112027 edge_11_9_0_0 + 1.969665145804842 edge_11_10_0_0
   + 2.579213214392216 edge_11_12_0_0 + 2.220767491033063 edge_11_13_0_0
   + 1.430429269117539 edge_11_14_0_0 + 1.070368339314003 edge_11_15_0_0
   + 0.8619481708219879 edge_11_16_0_0 + 0.2990490408475672 edge_11_17_0_0
   - 0.3923853149646477 edge_11_18_0_0 + 0.3267656706014811 edge_11_19_0_0
   + 3.116012267052314 edge_11_20_0_0 - 0.2185051653243482 edge_12_11_0_0
   + 0.3727602615314095 edge_12_13_0_0 - 0.2774694516890574 edge_12_14_0_0
   - 0.5526286364302931 edge_12_15_0_0 - 0.4624707981784505 edge_13_4_0_0
   - 0.1527658224025844 edge_13_6_0_0 + 0.4094929134493134 edge_13_7_0_0
   + 0.3166305781702506 edge_13_10_0_0 + 0.8169000934786064 edge_13_11_0_0
   + 1.081754679363665 edge_13_12_0_0 + 0.8515507718712939 edge_13_14_0_0
   + 0.6520010205053672 edge_13_15_0_0 - 0.022597734362821 edge_13_16_0_0
   + 0.0629968287579117 edge_13_19_0_0 + 3.368033969548499 edge_13_20_0_0
   - 0.7604389405773289 edge_14_11_0_0 - 0.4160818879741743 edge_14_12_0_0
   - 0.0384688198561591 edge_14_13_0_0 + 0.2862784549928917 edge_14_15_0_0
   - 0.1859705487444556 edge_15_1_0_0 - 0.0924167890249327 edge_15_3_0_0
   - 0.0248171401119426 edge_15_4_0_0 + 0.0522400628669464 edge_15_5_0_0
   + 2.197026801219468 edge_15_6_0_0 + 1.780544782749606 edge_15_7_0_0
   - 1.357646407210465 edge_15_9_0_0 + 0.6666839515409811 edge_15_10_0_0
   + 0.4026956404382905 edge_15_11_0_0 + 0.5796995272696149 edge_15_12_0_0
   + 0.7912133321579849 edge_15_13_0_0 + 2.701023086333751 edge_15_14_0_0
   + 1.187964603278028 edge_15_17_0_0 - 1.101015290350235 edge_15_18_0_0
   - 0.0467170326790817 edge_15_19_0_0 + 3.285928657887792 edge_15_20_0_0
   - 0.4648099157042201 edge_16_2_0_0 + 0.0979364367743747 edge_16_3_0_0
   + 0.4936111946879533 edge_16_4_0_0 - 0.441782748512731 edge_16_7_0_0
   + 0.5449740160285006 edge_16_9_0_0 + 0.6832501444559125 edge_16_10_0_0
   + 0.731383585300012 edge_16_11_0_0 + 2.068551154477112 edge_16_12_0_0
   + 1.7965908146955 edge_16_13_0_0 + 3.241893640968177 edge_16_15_0_0
   + 1.833882722387739 edge_16_19_0_0 + 3.497184452042 edge_16_20_0_0
   + 1.028592043649127 edge_17_6_0_0 + 0.3135675092552225 edge_17_7_0_0
   - 0.549193243033454 edge_17_9_0_0 - 0.7754484937551925 edge_19_2_0_0
   - 0.4058459429105107 edge_19_3_0_0 + 0.2272117784757887 edge_19_7_0_0
   + 0.4188690510753893 edge_19_9_0_0 + 0.7780184789464262 edge_19_10_0_0
   - 0.1878373505416669 edge_19_11_0_0 + 0.1545216337936672 edge_19_12_0_0
   + 0.1808124488895351 edge_19_13_0_0 - 1.180038010417717 edge_19_14_0_0
   + 0.8005291591855528 edge_19_15_0_0 + 0.381330991017137 edge_19_16_0_0
   - 0.5557781875424458 edge_19_17_0_0 + 1.590595432665769 edge_19_18_0_0
   + 1.007492769274039 edge_19_19_0_0 + 1.431928188182778 edge_19_20_0_0
   - 1.389512248385106 edge_20_1_0_0 - 1.137533201315915 edge_20_4_0_0
   - 0.356005465377828 edge_20_5_0_0 - 0.0725605863730425 edge_20_15_0_0
Subject To
 one_parent_1: edge_0_1_0_0 + edge_3_1_0_0 + edge_4_1_0_0 + edge_5_1_0_0
   + edge_6_1_0_0 + edge_15_1_0_0 + edge_20_1_0_0 = 1
 consume_one_flow_unit_1: flow_0_1_0_0 - flow_1_3_0_0 - flow_1_4_0_0
   - flow_1_5_0_0 - flow_1_6_0_0 - flow_1_15_0_0 - flow_1_20_0_0
   + flow_3_1_0_0 + flow_4_1_0_0 + flow_5_1_0_0 + flow_6_1_0_0
   + flow_15_1_0_0 + flow_20_1_0_0 = 1
 one_parent_2: edge_0_2_0_0 + edge_3_2_0_0 + edge_4_2_0_0 + edge_9_2_0_0
   + edge_10_2_0_0 + edge_11_2_0_0 + edge_16_2_0_0 + edge_19_2_0_0 = 1
 consume_one_flow_unit_2: flow_0_2_0_0 - flow_2_3_0_0 - flow_2_4_0_0
   - flow_2_7_0_0 - flow_2_9_0_0 - flow_2_10_0_0 - flow_2_11_0_0
   - flow_2_12_0_0 - flow_2_13_0_0 - flow_2_15_0_0 - flow_2_16_0_0
   - flow_2_19_0_0 - flow_2_20_0_0 + flow_3_2_0_0 + flow_4_2_0_0
   + flow_9_2_0_0 + flow_10_2_0_0 + flow_11_2_0_0 + flow_16_2_0_0
   + flow_19_2_0_0 = 1
 one_parent_3: edge_0_3_0_0 + edge_1_3_0_0 + edge_2_3_0_0 + edge_4_3_0_0
   + edge_5_3_0_0 + edge_6_3_0_0 + edge_9_3_0_0 + edge_10_3_0_0
   + edge_11_3_0_0 + edge_15_3_0_0 + edge_16_3_0_0 + edge_19_3_0_0 = 1
 consume_one_flow_unit_3: flow_0_3_0_0 + flow_1_3_0_0 + flow_2_3_0_0
   - flow_3_1_0_0 - flow_3_2_0_0 - flow_3_4_0_0 - flow_3_5_0_0
   - flow_3_6_0_0 - flow_3_7_0_0 - flow_3_9_0_0 - flow_3_10_0_0
   - flow_3_11_0_0 - flow_3_12_0_0 - flow_3_15_0_0 - flow_3_16_0_0
   - flow_3_20_0_0 + flow_4_3_0_0 + flow_5_3_0_0 + flow_6_3_0_0
   + flow_9_3_0_0 + flow_10_3_0_0 + flow_11_3_0_0 + flow_15_3_0_0
   + flow_16_3_0_0 + flow_19_3_0_0 = 1
 one_parent_4: edge_0_4_0_0 + edge_1_4_0_0 + edge_2_4_0_0 + edge_3_4_0_0
   + edge_5_4_0_0 + edge_6_4_0_0 + edge_7_4_0_0 + edge_9_4_0_0
   + edge_10_4_0_0 + edge_11_4_0_0 + edge_13_4_0_0 + edge_15_4_0_0
   + edge_16_4_0_0 + edge_20_4_0_0 = 1
 consume_one_flow_unit_4: flow_0_4_0_0 + flow_1_4_0_0 + flow_2_4_0_0
   + flow_3_4_0_0 - flow_4_1_0_0 - flow_4_2_0_0 - flow_4_3_0_0
   - flow_4_5_0_0 - flow_4_6_0_0 - flow_4_7_0_0 - flow_4_9_0_0
   - flow_4_10_0_0 - flow_4_11_0_0 - flow_4_12_0_0 - flow_4_13_0_0
   - flow_4_15_0_0 - flow_4_16_0_0 - flow_4_20_0_0 + flow_5_4_0_0
   + flow_6_4_0_0 + flow_7_4_0_0 + flow_9_4_0_0 + flow_10_4_0_0
   + flow_11_4_0_0 + flow_13_4_0_0 + flow_15_4_0_0 + flow_16_4_0_0
   + flow_20_4_0_0 = 1
 one_parent_5: edge_0_5_0_0 + edge_1_5_0_0 + edge_3_5_0_0 + edge_4_5_0_0
   + edge_6_5_0_0 + edge_15_5_0_0 + edge_20_5_0_0 = 1
 consume_one_flow_unit_5: flow_0_5_0_0 + flow_1_5_0_0 + flow_3_5_0_0
   + flow_4_5_0_0 - flow_5_1_0_0 - flow_5_3_0_0 - flow_5_4_0_0
   - flow_5_6_0_0 - flow_5_15_0_0 - flow_5_20_0_0 + flow_6_5_0_0
   + flow_15_5_0_0 + flow_20_5_0_0 = 1
 one_parent_6: edge_0_6_0_0 + edge_1_6_0_0 + edge_3_6_0_0 + edge_4_6_0_0
   + edge_5_6_0_0 + edge_7_6_0_0 + edge_9_6_0_0 + edge_10_6_0_0
   + edge_11_6_0_0 + edge_13_6_0_0 + edge_15_6_0_0 + edge_17_6_0_0 = 1
 consume_one_flow_unit_6: flow_0_6_0_0 + flow_1_6_0_0 + flow_3_6_0_0
   + flow_4_6_0_0 + flow_5_6_0_0 - flow_6_1_0_0 - flow_6_3_0_0
   - flow_6_4_0_0 - flow_6_5_0_0 - flow_6_7_0_0 - flow_6_9_0_0
   - flow_6_10_0_0 - flow_6_11_0_0 - flow_6_12_0_0 - flow_6_13_0_0
   - flow_6_14_0_0 - flow_6_15_0_0 - flow_6_17_0_0 - flow_6_19_0_0
   - flow_6_20_0_0 + flow_7_6_0_0 + flow_9_6_0_0 + flow_10_6_0_0
   + flow_11_6_0_0 + flow_13_6_0_0 + flow_15_6_0_0 + flow_17_6_0_0 = 1
 one_parent_7: edge_2_7_0_0 + edge_3_7_0_0 + edge_4_7_0_0 + edge_6_7_0_0
   + edge_9_7_0_0 + edge_10_7_0_0 + edge_11_7_0_0 + edge_13_7_0_0
   + edge_15_7_0_0 + edge_16_7_0_0 + edge_17_7_0_0 + edge_19_7_0_0 = 1
 consume_one_flow_unit_7: flow_2_7_0_0 + flow_3_7_0_0 + flow_4_7_0_0
   + flow_6_7_0_0 - flow_7_4_0_0 - flow_7_6_0_0 - flow_7_14_0_0
   - flow_7_15_0_0 - flow_7_17_0_0 + flow_9_7_0_0 + flow_10_7_0_0
   + flow_11_7_0_0 + flow_13_7_0_0 + flow_15_7_0_0 + flow_16_7_0_0
   + flow_17_7_0_0 + flow_19_7_0_0 = 1
 one_parent_8: = 1
 consume_one_flow_unit_8: = 1
 one_parent_9: edge_0_9_0_0 + edge_2_9_0_0 + edge_3_9_0_0 + edge_4_9_0_0
   + edge_6_9_0_0 + edge_10_9_0_0 + edge_11_9_0_0 + edge_15_9_0_0
   + edge_16_9_0_0 + edge_17_9_0_0 + edge_19_9_0_0 = 1
 consume_one_flow_unit_9: flow_0_9_0_0 + flow_2_9_0_0 + flow_3_9_0_0
   + flow_4_9_0_0 + flow_6_9_0_0 - flow_9_2_0_0 - flow_9_3_0_0
   - flow_9_4_0_0 - flow_9_6_0_0 - flow_9_7_0_0 - flow_9_10_0_0
   - flow_9_11_0_0 - flow_9_12_0_0 - flow_9_13_0_0 - flow_9_15_0_0
   - flow_9_16_0_0 - flow_9_17_0_0 - flow_9_18_0_0 - flow_9_19_0_0
   - flow_9_20_0_0 + flow_10_9_0_0 + flow_11_9_0_0 + flow_15_9_0_0
   + flow_16_9_0_0 + flow_17_9_0_0 + flow_19_9_0_0 = 1
 one_parent_10: edge_0_10_0_0 + edge_2_10_0_0 + edge_3_10_0_0
   + edge_4_10_0_0 + edge_6_10_0_0 + edge_9_10_0_0 + edge_11_10_0_0
   + edge_13_10_0_0 + edge_15_10_0_0 + edge_16_10_0_0 + edge_19_10_0_0 = 1
 consume_one_flow_unit_10: flow_0_10_0_0 + flow_2_10_0_0 + flow_3_10_0_0
   + flow_4_10_0_0 + flow_6_10_0_0 + flow_9_10_0_0 - flow_10_2_0_0
   - flow_10_3_0_0 - flow_10_4_0_0 - flow_10_6_0_0 - flow_10_7_0_0
   - flow_10_9_0_0 - flow_10_11_0_0 - flow_10_12_0_0 - flow_10_13_0_0
   - flow_10_14_0_0 - flow_10_15_0_0 - flow_10_16_0_0 - flow_10_17_0_0
   - flow_10_18_0_0 - flow_10_19_0_0 - flow_10_20_0_0 + flow_11_10_0_0
   + flow_13_10_0_0 + flow_15_10_0_0 + flow_16_10_0_0 + flow_19_10_0_0 = 1
 one_parent_11: edge_0_11_0_0 + edge_2_11_0_0 + edge_3_11_0_0
   + edge_4_11_0_0 + edge_6_11_0_0 + edge_9_11_0_0 + edge_10_11_0_0
   + edge_12_11_0_0 + edge_13_11_0_0 + edge_14_11_0_0 + edge_15_11_0_0
   + edge_16_11_0_0 + edge_19_11_0_0 = 1
 consume_one_flow_unit_11: flow_0_11_0_0 + flow_2_11_0_0 + flow_3_11_0_0
   + flow_4_11_0_0 + flow_6_11_0_0 + flow_9_11_0_0 + flow_10_11_0_0
   - flow_11_2_0_0 - flow_11_3_0_0 - flow_11_4_0_0 - flow_11_6_0_0
   - flow_11_7_0_0 - flow_11_9_0_0 - flow_11_10_0_0 - flow_11_12_0_0
   - flow_11_13_0_0 - flow_11_14_0_0 - flow_11_15_0_0 - flow_11_16_0_0
   - flow_11_17_0_0 - flow_11_18_0_0 - flow_11_19_0_0 - flow_11_20_0_0
   + flow_12_11_0_0 + flow_13_11_0_0 + flow_14_11_0_0 + flow_15_11_0_0
   + flow_16_11_0_0 + flow_19_11_0_0 = 1
 one_parent_12: edge_0_12_0_0 + edge_2_12_0_0 + edge_3_12_0_0
   + edge_4_12_0_0 + edge_6_12_0_0 + edge_9_12_0_0 + edge_10_12_0_0
   + edge_11_12_0_0 + edge_13_12_0_0 + edge_14_12_0_0 + edge_15_12_0_0
   + edge_16_12_0_0 + edge_19_12_0_0 = 1
 consume_one_flow_unit_12: flow_0_12_0_0 + flow_2_12_0_0 + flow_3_12_0_0
   + flow_4_12_0_0 + flow_6_12_0_0 + flow_9_12_0_0 + flow_10_12_0_0
   + flow_11_12_0_0 - flow_12_11_0_0 - flow_12_13_0_0 - flow_12_14_0_0
   - flow_12_15_0_0 + flow_13_12_0_0 + flow_14_12_0_0 + flow_15_12_0_0
   + flow_16_12_0_0 + flow_19_12_0_0 = 1
 one_parent_13: edge_0_13_0_0 + edge_2_13_0_0 + edge_4_13_0_0
   + edge_6_13_0_0 + edge_9_13_0_0 + edge_10_13_0_0 + edge_11_13_0_0
   + edge_12_13_0_0 + edge_14_13_0_0 + edge_15_13_0_0 + edge_16_13_0_0
   + edge_19_13_0_0 = 1
 consume_one_flow_unit_13: flow_0_13_0_0 + flow_2_13_0_0 + flow_4_13_0_0
   + flow_6_13_0_0 + flow_9_13_0_0 + flow_10_13_0_0 + flow_11_13_0_0
   + flow_12_13_0_0 - flow_13_4_0_0 - flow_13_6_0_0 - flow_13_7_0_0
   - flow_13_10_0_0 - flow_13_11_0_0 - flow_13_12_0_0 - flow_13_14_0_0
   - flow_13_15_0_0 - flow_13_16_0_0 - flow_13_19_0_0 - flow_13_20_0_0
   + flow_14_13_0_0 + flow_15_13_0_0 + flow_16_13_0_0 + flow_19_13_0_0 = 1
 one_parent_14: edge_6_14_0_0 + edge_7_14_0_0 + edge_10_14_0_0
   + edge_11_14_0_0 + edge_12_14_0_0 + edge_13_14_0_0 + edge_15_14_0_0
   + edge_19_14_0_0 = 1
 consume_one_flow_unit_14: flow_6_14_0_0 + flow_7_14_0_0 + flow_10_14_0_0
   + flow_11_14_0_0 + flow_12_14_0_0 + flow_13_14_0_0 - flow_14_11_0_0
   - flow_14_12_0_0 - flow_14_13_0_0 - flow_14_15_0_0 + flow_15_14_0_0
   + flow_19_14_0_0 = 1
 one_parent_15: edge_0_15_0_0 + edge_1_15_0_0 + edge_2_15_0_0
   + edge_3_15_0_0 + edge_4_15_0_0 + edge_5_15_0_0 + edge_6_15_0_0
   + edge_7_15_0_0 + edge_9_15_0_0 + edge_10_15_0_0 + edge_11_15_0_0
   + edge_12_15_0_0 + edge_13_15_0_0 + edge_14_15_0_0 + edge_16_15_0_0
   + edge_19_15_0_0 + edge_20_15_0_0 = 1
 consume_one_flow_unit_15: flow_0_15_0_0 + flow_1_15_0_0 + flow_2_15_0_0
   + flow_3_15_0_0 + flow_4_15_0_0 + flow_5_15_0_0 + flow_6_15_0_0
   + flow_7_15_0_0 + flow_9_15_0_0 + flow_10_15_0_0 + flow_11_15_0_0
   + flow_12_15_0_0 + flow_13_15_0_0 + flow_14_15_0_0 - flow_15_1_0_0
   - flow_15_3_0_0 - flow_15_4_0_0 - flow_15_5_0_0 - flow_15_6_0_0
   - flow_15_7_0_0 - flow_15_9_0_0 - flow_15_10_0_0 - flow_15_11_0_0
   - flow_15_12_0_0 - flow_15_13_0_0 - flow_15_14_0_0 - flow_15_17_0_0
   - flow_15_18_0_0 - flow_15_19_0_0 - flow_15_20_0_0 + flow_16_15_0_0
   + flow_19_15_0_0 + flow_20_15_0_0 = 1
 one_parent_16: edge_0_16_0_0 + edge_2_16_0_0 + edge_3_16_0_0
   + edge_4_16_0_0 + edge_9_16_0_0 + edge_10_16_0_0 + edge_11_16_0_0
   + edge_13_16_0_0 + edge_19_16_0_0 = 1
 consume_one_flow_unit_16: flow_0_16_0_0 + flow_2_16_0_0 + flow_3_16_0_0
   + flow_4_16_0_0 + flow_9_16_0_0 + flow_10_16_0_0 + flow_11_16_0_0
   + flow_13_16_0_0 - flow_16_2_0_0 - flow_16_3_0_0 - flow_16_4_0_0
   - flow_16_7_0_0 - flow_16_9_0_0 - flow_16_10_0_0 - flow_16_11_0_0
   - flow_16_12_0_0 - flow_16_13_0_0 - flow_16_15_0_0 - flow_16_19_0_0
   - flow_16_20_0_0 + flow_19_16_0_0 = 1
 one_parent_17: edge_6_17_0_0 + edge_7_17_0_0 + edge_9_17_0_0
   + edge_10_17_0_0 + edge_11_17_0_0 + edge_15_17_0_0 + edge_19_17_0_0 = 1
 consume_one_flow_unit_17: flow_6_17_0_0 + flow_7_17_0_0 + flow_9_17_0_0
   + flow_10_17_0_0 + flow_11_17_0_0 + flow_15_17_0_0 - flow_17_6_0_0
   - flow_17_7_0_0 - flow_17_9_0_0 + flow_19_17_0_0 = 1
 one_parent_18: edge_9_18_0_0 + edge_10_18_0_0 + edge_11_18_0_0
   + edge_15_18_0_0 + edge_19_18_0_0 = 1
 consume_one_flow_unit_18: flow_9_18_0_0 + flow_10_18_0_0 + flow_11_18_0_0
   + flow_15_18_0_0 + flow_19_18_0_0 = 1
 one_parent_19: edge_0_19_0_0 + edge_2_19_0_0 + edge_6_19_0_0
   + edge_9_19_0_0 + edge_10_19_0_0 + edge_11_19_0_0 + edge_13_19_0_0
   + edge_15_19_0_0 + edge_16_19_0_0 + edge_19_19_0_0 = 1
 consume_one_flow_unit_19: flow_0_19_0_0 + flow_2_19_0_0 + flow_6_19_0_0
   + flow_9_19_0_0 + flow_10_19_0_0 + flow_11_19_0_0 + flow_13_19_0_0
   + flow_15_19_0_0 + flow_16_19_0_0 - flow_19_2_0_0 - flow_19_3_0_0
   - flow_19_7_0_0 - flow_19_9_0_0 - flow_19_10_0_0 - flow_19_11_0_0
   - flow_19_12_0_0 - flow_19_13_0_0 - flow_19_14_0_0 - flow_19_15_0_0
   - flow_19_16_0_0 - flow_19_17_0_0 - flow_19_18_0_0 - flow_19_20_0_0 = 1
 one_parent_20: edge_0_20_0_0 + edge_1_20_0_0 + edge_2_20_0_0
   + edge_3_20_0_0 + edge_4_20_0_0 + edge_5_20_0_0 + edge_6_20_0_0
   + edge_9_20_0_0 + edge_10_20_0_0 + edge_11_20_0_0 + edge_13_20_0_0
   + edge_15_20_0_0 + edge_16_20_0_0 + edge_19_20_0_0 = 1
 consume_one_flow_unit_20: flow_0_20_0_0 + flow_1_20_0_0 + flow_2_20_0_0
   + flow_3_20_0_0 + flow_4_20_0_0 + flow_5_20_0_0 + flow_6_20_0_0
   + flow_9_20_0_0 + flow_10_20_0_0 + flow_11_20_0_0 + flow_13_20_0_0
   + flow_15_20_0_0 + flow_16_20_0_0 + flow_19_20_0_0 - flow_20_1_0_0
   - flow_20_4_0_0 - flow_20_5_0_0 - flow_20_15_0_0 = 1
 root_flow: flow_0_1_0_0 + flow_0_2_0_0 + flow_0_3_0_0 + flow_0_4_0_0
   + flow_0_5_0_0 + flow_0_6_0_0 + flow_0_9_0_0 + flow_0_10_0_0
   + flow_0_11_0_0 + flow_0_12_0_0 + flow_0_13_0_0 + flow_0_15_0_0
   + flow_0_16_0_0 + flow_0_19_0_0 + flow_0_20_0_0 = 20
 inactive_no_flow_0_1_0_0: flow_0_1_0_0 - 1000 edge_0_1_0_0 <= 0
 inactive_no_flow_0_2_0_0: flow_0_2_0_0 - 1000 edge_0_2_0_0 <= 0
 inactive_no_flow_0_3_0_0: flow_0_3_0_0 - 1000 edge_0_3_0_0 <= 0
 inactive_no_flow_0_4_0_0: flow_0_4_0_0 - 1000 edge_0_4_0_0 <= 0
 inactive_no_flow_0_5_0_0: flow_0_5_0_0 - 1000 edge_0_5_0_0 <= 0
 inactive_no_flow_0_6_0_0: flow_0_6_0_0 - 1000 edge_0_6_0_0 <= 0
 inactive_no_flow_0_9_0_0: flow_0_9_0_0 - 1000 edge_0_9_0_0 <= 0
 inactive_no_flow_0_10_0_0: flow_0_10_0_0 - 1000 edge_0_10_0_0 <= 0
 inactive_no_flow_0_11_0_0: flow_0_11_0_0 - 1000 edge_0_11_0_0 <= 0
 inactive_no_flow_0_12_0_0: flow_0_12_0_0 - 1000 edge_0_12_0_0 <= 0
 inactive_no_flow_0_13_0_0: flow_0_13_0_0 - 1000 edge_0_13_0_0 <= 0
 inactive_no_flow_0_15_0_0: flow_0_15_0_0 - 1000 edge_0_15_0_0 <= 0
 inactive_no_flow_0_16_0_0: flow_0_16_0_0 - 1000 edge_0_16_0_0 <= 0
 inactive_no_flow_0_19_0_0: flow_0_19_0_0 - 1000 edge_0_19_0_0 <= 0
 inactive_no_flow_0_20_0_0: flow_0_20_0_0 - 1000 edge_0_20_0_0 <= 0
 inactive_no_flow_1_3_0_0: flow_1_3_0_0 - 1000 edge_1_3_0_0 <= 0
 inactive_no_flow_1_4_0_0: flow_1_4_0_0 - 1000 edge_1_4_0_0 <= 0
 inactive_no_flow_1_5_0_0: flow_1_5_0_0 - 1000 edge_1_5_0_0 <= 0
 inactive_no_flow_1_6_0_0: flow_1_6_0_0 - 1000 edge_1_6_0_0 <= 0
 inactive_no_flow_1_15_0_0: flow_1_15_0_0 - 1000 edge_1_15_0_0 <= 0
 inactive_no_flow_1_20_0_0: flow_1_20_0_0 - 1000 edge_1_20_0_0 <= 0
 inactive_no_flow_2_3_0_0: flow_2_3_0_0 - 1000 edge_2_3_0_0 <= 0
 inactive_no_flow_2_4_0_0: flow_2_4_0_0 - 1000 edge_2_4_0_0 <= 0
 inactive_no_flow_2_7_0_0: flow_2_7_0_0 - 1000 edge_2_7_0_0 <= 0
 inactive_no_flow_2_9_0_0: flow_2_9_0_0 - 1000 edge_2_9_0_0 <= 0
 inactive_no_flow_2_10_0_0: flow_2_10_0_0 - 1000 edge_2_10_0_0 <= 0
 inactive_no_flow_2_11_0_0: flow_2_11_0_0 - 1000 edge_2_11_0_0 <= 0
 inactive_no_flow_2_12_0_0: flow_2_12_0_0 - 1000 edge_2_12_0_0 <= 0
 inactive_no_flow_2_13_0_0: flow_2_13_0_0 - 1000 edge_2_13_0_0 <= 0
 inactive_no_flow_2_15_0_0: flow_2_15_0_0 - 1000 edge_2_15_0_0 <= 0
 inactive_no_flow_2_16_0_0: flow_2_16_0_0 - 1000 edge_2_16_0_0 <= 0
 inactive_no_flow_2_19_0_0: flow_2_19_0_0 - 1000 edge_2_19_0_0 <= 0
 inactive_no_flow_2_20_0_0: flow_2_20_0_0 - 1000 edge_2_20_0_0 <= 0
 inactive_no_flow_3_1_0_0: flow_3_1_0_0 - 1000 edge_3_1_0_0 <= 0
 inactive_no_flow_3_2_0_0: flow_3_2_0_0 - 1000 edge_3_2_0_0 <= 0
 inactive_no_flow_3_4_0_0: flow_3_4_0_0 - 1000 edge_3_4_0_0 <= 0
 inactive_no_flow_3_5_0_0: flow_3_5_0_0 - 1000 edge_3_5_0_0 <= 0
 inactive_no_flow_3_6_0_0: flow_3_6_0_0 - 1000 edge_3_6_0_0 <= 0
 inactive_no_flow_3_7_0_0: flow_3_7_0_0 - 1000 edge_3_7_0_0 <= 0
 inactive_no_flow_3_9_0_0: flow_3_9_0_0 - 1000 edge_3_9_0_0 <= 0
 inactive_no_flow_3_10_0_0: flow_3_10_0_0 - 1000 edge_3_10_0_0 <= 0
 inactive_no_flow_3_11_0_0: flow_3_11_0_0 - 1000 edge_3_11_0_0 <= 0
 inactive_no_flow_3_12_0_0: flow_3_12_0_0 - 1000 edge_3_12_0_0 <= 0
 inactive_no_flow_3_15_0_0: flow_3_15_0_0 - 1000 edge_3_15_0_0 <= 0
 inactive_no_flow_3_16_0_0: flow_3_16_0_0 - 1000 edge_3_16_0_0 <= 0
 inactive_no_flow_3_20_0_0: flow_3_20_0_0 - 1000 edge_3_20_0_0 <= 0
 inactive_no_flow_4_1_0_0: flow_4_1_0_0 - 1000 edge_4_1_0_0 <= 0
 inactive_no_flow_4_2_0_0: flow_4_2_0_0 - 1000 edge_4_2_0_0 <= 0
 inactive_no_flow_4_3_0_0: flow_4_3_0_0 - 1000 edge_4_3_0_0 <= 0
 inactive_no_flow_4_5_0_0: flow_4_5_0_0 - 1000 edge_4_5_0_0 <= 0
 inactive_no_flow_4_6_0_0: flow_4_6_0_0 - 1000 edge_4_6_0_0 <= 0
 inactive_no_flow_4_7_0_0: flow_4_7_0_0 - 1000 edge_4_7_0_0 <= 0
 inactive_no_flow_4_9_0_0: flow_4_9_0_0 - 1000 edge_4_9_0_0 <= 0
 inactive_no_flow_4_10_0_0: flow_4_10_0_0 - 1000 edge_4_10_0_0 <= 0
 inactive_no_flow_4_11_0_0: flow_4_11_0_0 - 1000 edge_4_11_0_0 <= 0
 inactive_no_flow_4_12_0_0: flow_4_12_0_0 - 1000 edge_4_12_0_0 <= 0
 inactive_no_flow_4_13_0_0: flow_4_13_0_0 - 1000 edge_4_13_0_0 <= 0
 inactive_no_flow_4_15_0_0: flow_4_15_0_0 - 1000 edge_4_15_0_0 <= 0
 inactive_no_flow_4_16_0_0: flow_4_16_0_0 - 1000 edge_4_16_0_0 <= 0
 inactive_no_flow_4_20_0_0: flow_4_20_0_0 - 1000 edge_4_20_0_0 <= 0
 inactive_no_flow_5_1_0_0: flow_5_1_0_0 - 1000 edge_5_1_0_0 <= 0
 inactive_no_flow_5_3_0_0: flow_5_3_0_0 - 1000 edge_5_3_0_0 <= 0
 inactive_no_flow_5_4_0_0: flow_5_4_0_0 - 1000 edge_5_4_0_0 <= 0
 inactive_no_flow_5_6_0_0: flow_5_6_0_0 - 1000 edge_5_6_0_0 <= 0
 inactive_no_flow_5_15_0_0: flow_5_15_0_0 - 1000 edge_5_15_0_0 <= 0
 inactive_no_flow_5_20_0_0: flow_5_20_0_0 - 1000 edge_5_20_0_0 <= 0
 inactive_no_flow_6_1_0_0: flow_6_1_0_0 - 1000 edge_6_1_0_0 <= 0
 inactive_no_flow_6_3_0_0: flow_6_3_0_0 - 1000 edge_6_3_0_0 <= 0
 inactive_no_flow_6_4_0_0: flow_6_4_0_0 - 1000 edge_6_4_0_0 <= 0
 inactive_no_flow_6_5_0_0: flow_6_5_0_0 - 1000 edge_6_5_0_0 <= 0
 inactive_no_flow_6_7_0_0: flow_6_7_0_0 - 1000 edge_6_7_0_0 <= 0
 inactive_no_flow_6_9_0_0: flow_6_9_0_0 - 1000 edge_6_9_0_0 <= 0
 inactive_no_flow_6_10_0_0: flow_6_10_0_0 - 1000 edge_6_10_0_0 <= 0
 inactive_no_flow_6_11_0_0: flow_6_11_0_0 - 1000 edge_6_11_0_0 <= 0
 inactive_no_flow_6_12_0_0: flow_6_12_0_0 - 1000 edge_6_12_0_0 <= 0
 inactive_no_flow_6_13_0_0: flow_6_13_0_0 - 1000 edge_6_13_0_0 <= 0
 inactive_no_flow_6_14_0_0: flow_6_14_0_0 - 1000 edge_6_14_0_0 <= 0
 inactive_no_flow_6_15_0_0: flow_6_15_0_0 - 1000 edge_6_15_0_0 <= 0
 inactive_no_flow_6_17_0_0: flow_6_17_0_0 - 1000 edge_6_17_0_0 <= 0
 inactive_no_flow_6_19_0_0: flow_6_19_0_0 - 1000 edge_6_19_0_0 <= 0
 inactive_no_flow_6_20_0_0: flow_6_20_0_0 - 1000 edge_6_20_0_0 <= 0
 inactive_no_flow_7_4_0_0: flow_7_4_0_0 - 1000 edge_7_4_0_0 <= 0
 inactive_no_flow_7_6_0_0: flow_7_6_0_0 - 1000 edge_7_6_0_0 <= 0
 inactive_no_flow_7_14_0_0: flow_7_14_0_0 - 1000 edge_7_14_0_0 <= 0
 inactive_no_flow_7_15_0_0: flow_7_15_0_0 - 1000 edge_7_15_0_0 <= 0
 inactive_no_flow_7_17_0_0: flow_7_17_0_0 - 1000 edge_7_17_0_0 <= 0
 inactive_no_flow_9_2_0_0: flow_9_2_0_0 - 1000 edge_9_2_0_0 <= 0
 inactive_no_flow_9_3_0_0: flow_9_3_0_0 - 1000 edge_9_3_0_0 <= 0
 inactive_no_flow_9_4_0_0: flow_9_4_0_0 - 1000 edge_9_4_0_0 <= 0
 inactive_no_flow_9_6_0_0: flow_9_6_0_0 - 1000 edge_9_6_0_0 <= 0
 inactive_no_flow_9_7_0_0: flow_9_7_0_0 - 1000 edge_9_7_0_0 <= 0
 inactive_no_flow_9_10_0_0: flow_9_10_0_0 - 1000 edge_9_10_0_0 <= 0
 inactive_no_flow_9_11_0_0: flow_9_11_0_0 - 1000 edge_9_11_0_0 <= 0
 inactive_no_flow_9_12_0_0: flow_9_12_0_0 - 1000 edge_9_12_0_0 <= 0
 inactive_no_flow_9_13_0_0: flow_9_13_0_0 - 1000 edge_9_13_0_0 <= 0
 inactive_no_flow_9_15_0_0: flow_9_15_0_0 - 1000 edge_9_15_0_0 <= 0
 inactive_no_flow_9_16_0_0: flow_9_16_0_0 - 1000 edge_9_16_0_0 <= 0
 inactive_no_flow_9_17_0_0: flow_9_17_0_0 - 1000 edge_9_17_0_0 <= 0
 inactive_no_flow_9_18_0_0: flow_9_18_0_0 - 1000 edge_9_18_0_0 <= 0
 inactive_no_flow_9_19_0_0: flow_9_19_0_0 - 1000 edge_9_19_0_0 <= 0
 inactive_no_flow_9_20_0_0: flow_9_20_0_0 - 1000 edge_9_20_0_0 <= 0
 inactive_no_flow_10_2_0_0: flow_10_2_0_0 - 1000 edge_10_2_0_0 <= 0
 inactive_no_flow_10_3_0_0: flow_10_3_0_0 - 1000 edge_10_3_0_0 <= 0
 inactive_no_flow_10_4_0_0: flow_10_4_0_0 - 1000 edge_10_4_0_0 <= 0
 inactive_no_flow_10_6_0_0: flow_10_6_0_0 - 1000 edge_10_6_0_0 <= 0
 inactive_no_flow_10_7_0_0: flow_10_7_0_0 - 1000 edge_10_7_0_0 <= 0
 inactive_no_flow_10_9_0_0: flow_10_9_0_0 - 1000 edge_10_9_0_0 <= 0
 inactive_no_flow_10_11_0_0: flow_10_11_0_0 - 1000 edge_10_11_0_0 <= 0
 inactive_no_flow_10_12_0_0: flow_10_12_0_0 - 1000 edge_10_12_0_0 <= 0
 inactive_no_flow_10_13_0_0: flow_10_13_0_0 - 1000 edge_10_13_0_0 <= 0
 inactive_no_flow_10_14_0_0: flow_10_14_0_0 - 1000 edge_10_14_0_0 <= 0
 inactive_no_flow_10_15_0_0: flow_10_15_0_0 - 1000 edge_10_15_0_0 <= 0
 inactive_no_flow_10_16_0_0: flow_10_16_0_0 - 1000 edge_10_16_0_0 <= 0
 inactive_no_flow_10_17_0_0: flow_10_17_0_0 - 1000 edge_10_17_0_0 <= 0
 inactive_no_flow_10_18_0_0: flow_10_18_0_0 - 1000 edge_10_18_0_0 <= 0
 inactive_no_flow_10_19_0_0: flow_10_19_0_0 - 1000 edge_10_19_0_0 <= 0
 inactive_no_flow_10_20_0_0: flow_10_20_0_0 - 1000 edge_10_20_0_0 <= 0
 inactive_no_flow_11_2_0_0: flow_11_2_0_0 - 1000 edge_11_2_0_0 <= 0
 inactive_no_flow_11_3_0_0: flow_11_3_0_0 - 1000 edge_11_3_0_0 <= 0
 inactive_no_flow_11_4_0_0: flow_11_4_0_0 - 1000 edge_11_4_0_0 <= 0
 inactive_no_flow_11_6_0_0: flow_11_6_0_0 - 1000 edge_11_6_0_0 <= 0
 inactive_no_flow_11_7_0_0: flow_11_7_0_0 - 1000 edge_11_7_0_0 <= 0
 inactive_no_flow_11_9_0_0: flow_11_9_0_0 - 1000 edge_11_9_0_0 <= 0
 inactive_no_flow_11_10_0_0: flow_11_10_0_0 - 1000 edge_11_10_0_0 <= 0
 inactive_no_flow_11_12_0_0: flow_11_12_0_0 - 1000 edge_11_12_0_0 <= 0
 inactive_no_flow_11_13_0_0: flow_11_13_0_0 - 1000 edge_11_13_0_0 <= 0
 inactive_no_flow_11_14_0_0: flow_11_14_0_0 - 1000 edge_11_14_0_0 <= 0
 inactive_no_flow_11_15_0_0: flow_11_15_0_0 - 1000 edge_11_15_0_0 <= 0
 inactive_no_flow_11_16_0_0: flow_11_16_0_0 - 1000 edge_11_16_0_0 <= 0
 inactive_no_flow_11_17_0_0: flow_11_17_0_0 - 1000 edge_11_17_0_0 <= 0
 inactive_no_flow_11_18_0_0: flow_11_18_0_0 - 1000 edge_11_18_0_0 <= 0
 inactive_no_flow_11_19_0_0: flow_11_19_0_0 - 1000 edge_11_19_0_0 <= 0
 inactive_no_flow_11_20_0_0: flow_11_20_0_0 - 1000 edge_11_20_0_0 <= 0
 inactive_no_flow_12_11_0_0: flow_12_11_0_0 - 1000 edge_12_11_0_0 <= 0
 inactive_no_flow_12_13_0_0: flow_12_13_0_0 - 1000 edge_12_13_0_0 <= 0
 inactive_no_flow_12_14_0_0: flow_12_14_0_0 - 1000 edge_12_14_0_0 <= 0
 inactive_no_flow_12_15_0_0: flow_12_15_0_0 - 1000 edge_12_15_0_0 <= 0
 inactive_no_flow_13_4_0_0: flow_13_4_0_0 - 1000 edge_13_4_0_0 <= 0
 inactive_no_flow_13_6_0_0: flow_13_6_0_0 - 1000 edge_13_6_0_0 <= 0
 inactive_no_flow_13_7_0_0: flow_13_7_0_0 - 1000 edge_13_7_0_0 <= 0
 inactive_no_flow_13_10_0_0: flow_13_10_0_0 - 1000 edge_13_10_0_0 <= 0
 inactive_no_flow_13_11_0_0: flow_13_11_0_0 - 1000 edge_13_11_0_0 <= 0
 inactive_no_flow_13_12_0_0: flow_13_12_0_0 - 1000 edge_13_12_0_0 <= 0
 inactive_no_flow_13_14_0_0: flow_13_14_0_0 - 1000 edge_13_14_0_0 <= 0
 inactive_no_flow_13_15_0_0: flow_13_15_0_0 - 1000 edge_13_15_0_0 <= 0
 inactive_no_flow_13_16_0_0: flow_13_16_0_0 - 1000 edge_13_16_0_0 <= 0
 inactive_no_flow_13_19_0_0: flow_13_19_0_0 - 1000 edge_13_19_0_0 <= 0
 inactive_no_flow_13_20_0_0: flow_13_20_0_0 - 1000 edge_13_20_0_0 <= 0
 inactive_no_flow_14_11_0_0: flow_14_11_0_0 - 1000 edge_14_11_0_0 <= 0
 inactive_no_flow_14_12_0_0: flow_14_12_0_0 - 1000 edge_14_12_0_0 <= 0
 inactive_no_flow_14_13_0_0: flow_14_13_0_0 - 1000 edge_14_13_0_0 <= 0
 inactive_no_flow_14_15_0_0: flow_14_15_0_0 - 1000 edge_14_15_0_0 <= 0
 inactive_no_flow_15_1_0_0: flow_15_1_0_0 - 1000 edge_15_1_0_0 <= 0
 inactive_no_flow_15_3_0_0: flow_15_3_0_0 - 1000 edge_15_3_0_0 <= 0
 inactive_no_flow_15_4_0_0: flow_15_4_0_0 - 1000 edge_15_4_0_0 <= 0
 inactive_no_flow_15_5_0_0: flow_15_5_0_0 - 1000 edge_15_5_0_0 <= 0
 inactive_no_flow_15_6_0_0: flow_15_6_0_0 - 1000 edge_15_6_0_0 <= 0
 inactive_no_flow_15_7_0_0: flow_15_7_0_0 - 1000 edge_15_7_0_0 <= 0
 inactive_no_flow_15_9_0_0: flow_15_9_0_0 - 1000 edge_15_9_0_0 <= 0
 inactive_no_flow_15_10_0_0: flow_15_10_0_0 - 1000 edge_15_10_0_0 <= 0
 inactive_no_flow_15_11_0_0: flow_15_11_0_0 - 1000 edge_15_11_0_0 <= 0
 inactive_no_flow_15_12_0_0: flow_15_12_0_0 - 1000 edge_15_12_0_0 <= 0
 inactive_no_flow_15_13_0_0: flow_15_13_0_0 - 1000 edge_15_13_0_0 <= 0
 inactive_no_flow_15_14_0_0: flow_15_14_0_0 - 1000 edge_15_14_0_0 <= 0
 inactive_no_flow_15_17_0_0: flow_15_17_0_0 - 1000 edge_15_17_0_0 <= 0
 inactive_no_flow_15_18_0_0: flow_15_18_0_0 - 1000 edge_15_18_0_0 <= 0
 inactive_no_flow_15_19_0_0: flow_15_19_0_0 - 1000 edge_15_19_0_0 <= 0
 inactive_no_flow_15_20_0_0: flow_15_20_0_0 - 1000 edge_15_20_0_0 <= 0
 inactive_no_flow_16_2_0_0: flow_16_2_0_0 - 1000 edge_16_2_0_0 <= 0
 inactive_no_flow_16_3_0_0: flow_16_3_0_0 - 1000 edge_16_3_0_0 <= 0
 inactive_no_flow_16_4_0_0: flow_16_4_0_0 - 1000 edge_16_4_0_0 <= 0
 inactive_no_flow_16_7_0_0: flow_16_7_0_0 - 1000 edge_16_7_0_0 <= 0
 inactive_no_flow_16_9_0_0: flow_16_9_0_0 - 1000 edge_16_9_0_0 <= 0
 inactive_no_flow_16_10_0_0: flow_16_10_0_0 - 1000 edge_16_10_0_0 <= 0
 inactive_no_flow_16_11_0_0: flow_16_11_0_0 - 1000 edge_16_11_0_0 <= 0
 inactive_no_flow_16_12_0_0: flow_16_12_0_0 - 1000 edge_16_12_0_0 <= 0
 inactive_no_flow_16_13_0_0: flow_16_13_0_0 - 1000 edge_16_13_0_0 <= 0
 inactive_no_flow_16_15_0_0: flow_16_15_0_0 - 1000 edge_16_15_0_0 <= 0
 inactive_no_flow_16_19_0_0: flow_16_19_0_0 - 1000 edge_16_19_0_0 <= 0
 inactive_no_flow_16_20_0_0: flow_16_20_0_0 - 1000 edge_16_20_0_0 <= 0
 inactive_no_flow_17_6_0_0: flow_17_6_0_0 - 1000 edge_17_6_0_0 <= 0
 inactive_no_flow_17_7_0_0: flow_17_7_0_0 - 1000 edge_17_7_0_0 <= 0
 inactive_no_flow_17_9_0_0: flow_17_9_0_0 - 1000 edge_17_9_0_0 <= 0
 inactive_no_flow_19_2_0_0: flow_19_2_0_0 - 1000 edge_19_2_0_0 <= 0
 inactive_no_flow_19_3_0_0: flow_19_3_0_0 - 1000 edge_19_3_0_0 <= 0
 inactive_no_flow_19_7_0_0: flow_19_7_0_0 - 1000 edge_19_7_0_0 <= 0
 inactive_no_flow_19_9_0_0: flow_19_9_0_0 - 1000 edge_19_9_0_0 <= 0
 inactive_no_flow_19_10_0_0: flow_19_10_0_0 - 1000 edge_19_10_0_0 <= 0
 inactive_no_flow_19_11_0_0: flow_19_11_0_0 - 1000 edge_19_11_0_0 <= 0
 inactive_no_flow_19_12_0_0: flow_19_12_0_0 - 1000 edge_19_12_0_0 <= 0
 inactive_no_flow_19_13_0_0: flow_19_13_0_0 - 1000 edge_19_13_0_0 <= 0
 inactive_no_flow_19_14_0_0: flow_19_14_0_0 - 1000 edge_19_14_0_0 <= 0
 inactive_no_flow_19_15_0_0: flow_19_15_0_0 - 1000 edge_19_15_0_0 <= 0
 inactive_no_flow_19_16_0_0: flow_19_16_0_0 - 1000 edge_19_16_0_0 <= 0
 inactive_no_flow_19_17_0_0: flow_19_17_0_0 - 1000 edge_19_17_0_0 <= 0
 inactive_no_flow_19_18_0_0: flow_19_18_0_0 - 1000 edge_19_18_0_0 <= 0
 inactive_no_flow_19_19_0_0: flow_19_19_0_0 - 1000 edge_19_19_0_0 <= 0
 inactive_no_flow_19_20_0_0: flow_19_20_0_0 - 1000 edge_19_20_0_0 <= 0
 inactive_no_flow_20_1_0_0: flow_20_1_0_0 - 1000 edge_20_1_0_0 <= 0
 inactive_no_flow_20_4_0_0: flow_20_4_0_0 - 1000 edge_20_4_0_0 <= 0
 inactive_no_flow_20_5_0_0: flow_20_5_0_0 - 1000 edge_20_5_0_0 <= 0
 inactive_no_flow_20_15_0_0: flow_20_15_0_0 - 1000 edge_20_15_0_0 <= 0
Bounds
Binaries
 edge_0_1_0_0 edge_0_2_0_0 edge_0_3_0_0 edge_0_4_0_0 edge_0_5_0_0
 edge_0_6_0_0 edge_0_9_0_0 edge_0_10_0_0 edge_0_11_0_0 edge_0_12_0_0
 edge_0_13_0_0 edge_0_15_0_0 edge_0_16_0_0 edge_0_19_0_0 edge_0_20_0_0
 edge_1_3_0_0 edge_1_4_0_0 edge_1_5_0_0 edge_1_6_0_0 edge_1_15_0_0
 edge_1_20_0_0 edge_2_3_0_0 edge_2_4_0_0 edge_2_7_0_0 edge_2_9_0_0
 edge_2_10_0_0 edge_2_11_0_0 edge_2_12_0_0 edge_2_13_0_0 edge_2_15_0_0
 edge_2_16_0_0 edge_2_19_0_0 edge_2_20_0_0 edge_3_1_0_0 edge_3_2_0_0
 edge_3_4_0_0 edge_3_5_0_0 edge_3_6_0_0 edge_3_7_0_0 edge_3_9_0_0
 edge_3_10_0_0 edge_3_11_0_0 edge_3_12_0_0 edge_3_15_0_0 edge_3_16_0_0
 edge_3_20_0_0 edge_4_1_0_0 edge_4_2_0_0 edge_4_3_0_0 edge_4_5_0_0
 edge_4_6_0_0 edge_4_7_0_0 edge_4_9_0_0 edge_4_10_0_0 edge_4_11_0_0
 edge_4_12_0_0 edge_4_13_0_0 edge_4_15_0_0 edge_4_16_0_0 edge_4_20_0_0
 edge_5_1_0_0 edge_5_3_0_0 edge_5_4_0_0 edge_5_6_0_0 edge_5_15_0_0
 edge_5_20_0_0 edge_6_1_0_0 edge_6_3_0_0 edge_6_4_0_0 edge_6_5_0_0
 edge_6_7_0_0 edge_6_9_0_0 edge_6_10_0_0 edge_6_11_0_0 edge_6_12_0_0
 edge_6_13_0_0 edge_6_14_0_0 edge_6_15_0_0 edge_6_17_0_0 edge_6_19_0_0
 edge_6_20_0_0 edge_7_4_0_0 edge_7_6_0_0 edge_7_14_0_0 edge_7_15_0_0
 edge_7_17_0_0 edge_9_2_0_0 edge_9_3_0_0 edge_9_4_0_0 edge_9_6_0_0
 edge_9_7_0_0 edge_9_10_0_0 edge_9_11_0_0 edge_9_12_0_0 edge_9_13_0_0
 edge_9_15_0_0 edge_9_16_0_0 edge_9_17_0_0 edge_9_18_0_0 edge_9_19_0_0
 edge_9_20_0_0 edge_10_2_0_0 edge_10_3_0_0 edge_10_4_0_0 edge_10_6_0_0
 edge_10_7_0_0 edge_10_9_0_0 edge_10_11_0_0 edge_10_12_0_0 edge_10_13_0_0
 edge_10_14_0_0 edge_10_15_0_0 edge_10_16_0_0 edge_10_17_0_0 edge_10_18_0_0
 edge_10_19_0_0 edge_10_20_0_0 edge_11_2_0_0 edge_11_3_0_0 edge_11_4_0_0
 edge_11_6_0_0 edge_11_7_0_0 edge_11_9_0_0 edge_11_10_0_0 edge_11_12_0_0
 edge_11_13_0_0 edge_11_14_0_0 edge_11_15_0_0 edge_11_16_0_0 edge_11_17_0_0
 edge_11_18_0_0 edge_11_19_0_0 edge_11_20_0_0 edge_12_11_0_0 edge_12_13_0_0
 edge_12_14_0_0 edge_12_15_0_0 edge_13_4_0_0 edge_13_6_0_0 edge_13_7_0_0
 edge_13_10_0_0 edge_13_11_0_0 edge_13_12_0_0 edge_13_14_0_0 edge_13_15_0_0
 edge_13_16_0_0 edge_13_19_0_0 edge_13_20_0_0 edge_14_11_0_0 edge_14_12_0_0
 edge_14_13_0_0 edge_14_15_0_0 edge_15_1_0_0 edge_15_3_0_0 edge_15_4_0_0
 edge_15_5_0_0 edge_15_6_0_0 edge_15_7_0_0 edge_15_9_0_0 edge_15_10_0_0
 edge_15_11_0_0 edge_15_12_0_0 edge_15_13_0_0 edge_15_14_0_0 edge_15_17_0_0
 edge_15_18_0_0 edge_15_19_0_0 edge_15_20_0_0 edge_16_2_0_0 edge_16_3_0_0
 edge_16_4_0_0 edge_16_7_0_0 edge_16_9_0_0 edge_16_10_0_0 edge_16_11_0_0
 edge_16_12_0_0 edge_16_13_0_0 edge_16_15_0_0 edge_16_19_0_0 edge_16_20_0_0
 edge_17_6_0_0 edge_17_7_0_0 edge_17_9_0_0 edge_19_2_0_0 edge_19_3_0_0
 edge_19_7_0_0 edge_19_9_0_0 edge_19_10_0_0 edge_19_11_0_0 edge_19_12_0_0
 edge_19_13_0_0 edge_19_14_0_0 edge_19_15_0_0 edge_19_16_0_0 edge_19_17_0_0
 edge_19_18_0_0 edge_19_19_0_0 edge_19_20_0_0 edge_20_1_0_0 edge_20_4_0_0
 edge_20_5_0_0 edge_20_15_0_0
End
